p edge 244 442
e 1 3 1
e 1 2 1
e 2 4 1
e 3 6 1
e 3 4 1
e 4 7 1
e 4 5 1
e 5 8 1
e 6 9 1
e 6 7 1
e 7 10 1
e 7 8 1
e 8 11 1
e 9 20 1
e 9 10 1
e 10 21 1
e 10 11 1
e 11 22 1
e 12 23 1
e 12 13 1
e 13 24 1
e 13 14 1
e 14 25 1
e 14 15 1
e 15 26 1
e 15 16 1
e 16 27 1
e 16 17 1
e 17 28 1
e 17 18 1
e 18 29 1
e 18 19 1
e 19 30 1
e 19 20 1
e 20 31 1
e 20 21 1
e 21 32 1
e 21 22 1
e 22 33 1
e 23 35 1
e 23 24 1
e 24 36 1
e 24 25 1
e 25 37 1
e 25 26 1
e 26 38 1
e 26 27 1
e 27 39 1
e 27 28 1
e 28 40 1
e 28 29 1
e 29 41 1
e 29 30 1
e 30 42 1
e 30 31 1
e 31 43 1
e 31 32 1
e 32 44 1
e 32 33 1
e 33 45 1
e 34 46 1
e 34 35 1
e 35 47 1
e 35 36 1
e 36 48 1
e 36 37 1
e 37 49 1
e 37 38 1
e 38 50 1
e 38 39 1
e 39 51 1
e 39 40 1
e 40 52 1
e 40 41 1
e 41 53 1
e 41 42 1
e 42 54 1
e 42 43 1
e 43 55 1
e 43 44 1
e 44 56 1
e 44 45 1
e 45 57 1
e 46 60 1
e 46 47 1
e 47 61 1
e 47 48 1
e 48 62 1
e 48 49 1
e 49 63 1
e 49 50 1
e 50 64 1
e 50 51 1
e 51 65 1
e 51 52 1
e 52 66 1
e 52 53 1
e 53 67 1
e 53 54 1
e 54 68 1
e 54 55 1
e 55 69 1
e 55 56 1
e 56 70 1
e 56 57 1
e 57 71 1
e 58 72 1
e 58 59 1
e 59 73 1
e 59 60 1
e 60 74 1
e 60 61 1
e 61 75 1
e 61 62 1
e 62 76 1
e 62 63 1
e 63 77 1
e 63 64 1
e 64 78 1
e 64 65 1
e 65 79 1
e 65 66 1
e 66 80 1
e 66 67 1
e 67 81 1
e 67 68 1
e 68 82 1
e 68 69 1
e 69 83 1
e 69 70 1
e 70 84 1
e 70 71 1
e 71 85 1
e 72 86 1
e 72 73 1
e 73 87 1
e 73 74 1
e 74 88 1
e 74 75 1
e 75 89 1
e 75 76 1
e 76 90 1
e 76 77 1
e 77 91 1
e 77 78 1
e 78 92 1
e 78 79 1
e 79 93 1
e 79 80 1
e 80 94 1
e 80 81 1
e 81 95 1
e 81 82 1
e 82 96 1
e 82 83 1
e 83 84 1
e 84 85 1
e 86 97 1
e 86 87 1
e 87 98 1
e 87 88 1
e 88 99 1
e 88 89 1
e 89 100 1
e 89 90 1
e 90 101 1
e 90 91 1
e 91 102 1
e 91 92 1
e 92 103 1
e 92 93 1
e 93 104 1
e 93 94 1
e 94 105 1
e 94 95 1
e 95 106 1
e 95 96 1
e 96 107 1
e 97 108 1
e 97 98 1
e 98 109 1
e 98 99 1
e 99 110 1
e 99 100 1
e 100 111 1
e 100 101 1
e 101 112 1
e 101 102 1
e 102 113 1
e 102 103 1
e 103 114 1
e 103 104 1
e 104 115 1
e 104 105 1
e 105 116 1
e 105 106 1
e 106 117 1
e 106 107 1
e 107 118 1
e 108 119 1
e 108 109 1
e 109 120 1
e 109 110 1
e 110 121 1
e 110 111 1
e 111 122 1
e 111 112 1
e 112 123 1
e 112 113 1
e 113 124 1
e 113 114 1
e 114 125 1
e 114 115 1
e 115 126 1
e 115 116 1
e 116 127 1
e 116 117 1
e 117 128 1
e 117 118 1
e 119 130 1
e 119 120 1
e 120 131 1
e 120 121 1
e 121 132 1
e 121 122 1
e 122 133 1
e 122 123 1
e 123 134 1
e 123 124 1
e 124 135 1
e 124 125 1
e 125 136 1
e 125 126 1
e 126 137 1
e 126 127 1
e 127 138 1
e 127 128 1
e 128 139 1
e 129 140 1
e 129 130 1
e 130 141 1
e 130 131 1
e 131 142 1
e 131 132 1
e 132 143 1
e 132 133 1
e 133 144 1
e 133 134 1
e 134 145 1
e 134 135 1
e 135 146 1
e 135 136 1
e 136 147 1
e 136 137 1
e 137 148 1
e 137 138 1
e 138 149 1
e 138 139 1
e 139 150 1
e 140 151 1
e 140 141 1
e 141 152 1
e 141 142 1
e 142 153 1
e 142 143 1
e 143 154 1
e 143 144 1
e 144 155 1
e 144 145 1
e 145 156 1
e 145 146 1
e 146 157 1
e 146 147 1
e 147 158 1
e 147 148 1
e 148 159 1
e 148 149 1
e 149 160 1
e 149 150 1
e 150 161 1
e 151 162 1
e 151 152 1
e 152 163 1
e 152 153 1
e 153 164 1
e 153 154 1
e 154 165 1
e 154 155 1
e 155 166 1
e 155 156 1
e 156 167 1
e 156 157 1
e 157 168 1
e 157 158 1
e 158 169 1
e 158 159 1
e 159 170 1
e 159 160 1
e 160 171 1
e 160 161 1
e 161 172 1
e 162 163 1
e 163 164 1
e 164 165 1
e 165 175 1
e 165 166 1
e 166 176 1
e 166 167 1
e 167 177 1
e 167 168 1
e 168 178 1
e 168 169 1
e 169 179 1
e 169 170 1
e 170 180 1
e 170 171 1
e 171 181 1
e 171 172 1
e 172 182 1
e 172 173 1
e 173 183 1
e 173 174 1
e 175 184 1
e 175 176 1
e 176 185 1
e 176 177 1
e 177 186 1
e 177 178 1
e 178 187 1
e 178 179 1
e 179 188 1
e 179 180 1
e 180 189 1
e 180 181 1
e 181 190 1
e 181 182 1
e 182 191 1
e 182 183 1
e 183 192 1
e 184 194 1
e 184 185 1
e 185 195 1
e 185 186 1
e 186 196 1
e 186 187 1
e 187 197 1
e 187 188 1
e 188 198 1
e 188 189 1
e 189 199 1
e 189 190 1
e 190 200 1
e 190 191 1
e 191 201 1
e 191 192 1
e 192 202 1
e 192 193 1
e 193 203 1
e 194 204 1
e 194 195 1
e 195 205 1
e 195 196 1
e 196 206 1
e 196 197 1
e 197 207 1
e 197 198 1
e 198 208 1
e 198 199 1
e 199 209 1
e 199 200 1
e 200 210 1
e 200 201 1
e 201 211 1
e 201 202 1
e 202 212 1
e 202 203 1
e 203 213 1
e 204 214 1
e 204 205 1
e 205 215 1
e 205 206 1
e 206 216 1
e 206 207 1
e 207 217 1
e 207 208 1
e 208 218 1
e 208 209 1
e 209 219 1
e 209 210 1
e 210 220 1
e 210 211 1
e 211 221 1
e 211 212 1
e 212 222 1
e 212 213 1
e 213 223 1
e 214 215 1
e 215 225 1
e 215 216 1
e 216 226 1
e 216 217 1
e 217 227 1
e 217 218 1
e 218 228 1
e 218 219 1
e 219 229 1
e 219 220 1
e 220 230 1
e 220 221 1
e 221 231 1
e 221 222 1
e 222 223 1
e 223 224 1
e 225 232 1
e 225 226 1
e 226 233 1
e 226 227 1
e 227 234 1
e 227 228 1
e 228 235 1
e 228 229 1
e 229 236 1
e 229 230 1
e 230 237 1
e 230 231 1
e 231 238 1
e 232 233 1
e 233 234 1
e 234 239 1
e 234 235 1
e 235 240 1
e 235 236 1
e 236 241 1
e 236 237 1
e 237 238 1
e 239 242 1
e 239 240 1
e 240 243 1
e 240 241 1
e 241 244 1
e 242 243 1
e 243 244 1